50

100 12 317
100 10 311
96 18 291
94 29 436
90 23 412
88 5 450
87 15 331
85 23 317
83 14 420
81 1 409
80 23 254
80 11 271
77 4 399
74 22 344
65 19 225
62 17 330
62 16 330
62 7 366
61 19 365
59 8 374
59 4 253
57 7 264
54 1 421
51 6 440
45 11 373
45 6 421
40 7 233
38 12 413
37 9 366
37 4 320
37 5 424
36 11 412
29 7 420
29 1 324
27 7 341
26 2 257
22 1 118
22 2 423
21 1 445
17 5 274
14 5 151
14 5 192
8 1 266
7 1 384
6 2 116
5 1 22
5 2 226
3 1 346
3 1 365
1 1 282
